
Gurobi 6.5.2 (win64) logging started 07/24/16 17:24:25


Gurobi 6.5.2 (win64) logging started 07/24/16 17:24:25

Optimize a model with 1310 rows, 610 columns and 3651 nonzeros
Coefficient statistics:
  Matrix range    [6e-08, 6e+02]
  Objective range [1e+00, 1e+00]
  Bounds range    [1e+00, 1e+00]
  RHS range       [6e-06, 2e+03]
Presolve removed 780 rows and 140 columns
Presolve time: 0.00s
Presolved: 530 rows, 470 columns, 2256 nonzeros
Variable types: 273 continuous, 197 integer (197 binary)

Root relaxation: objective 1.646883e+01, 714 iterations, 0.02 seconds

    Nodes    |    Current Node    |     Objective Bounds      |     Work
 Expl Unexpl |  Obj  Depth IntInf | Incumbent    BestBd   Gap | It/Node Time

     0     0   16.46883    0   47          -   16.46883      -     -    0s
     0     0   18.64880    0   41          -   18.64880      -     -    0s
H    0     0                      19.0052672   18.64880  1.88%     -    0s
H    0     0                      18.9990261   18.64880  1.84%     -    0s
     0     0   18.64880    0   41   18.99903   18.64880  1.84%     -    0s
     0     0   18.64880    0   35   18.99903   18.64880  1.84%     -    0s
H    0     0                      18.9696797   18.64880  1.69%     -    0s
     0     0   18.64880    0   34   18.96968   18.64880  1.69%     -    0s
     0     0   18.64880    0   34   18.96968   18.64880  1.69%     -    0s
     0     0   18.64880    0   23   18.96968   18.64880  1.69%     -    0s
     0     0   18.64880    0   23   18.96968   18.64880  1.69%     -    0s
H    0     0                      18.8517017   18.64880  1.08%     -    0s
     0     0   18.64880    0   24   18.85170   18.64880  1.08%     -    0s
     0     0   18.64880    0   24   18.85170   18.64880  1.08%     -    0s
H    0     2                      18.8319534   18.64880  0.97%     -    0s
     0     2   18.64880    0   24   18.83195   18.64880  0.97%     -    0s
*  198    53              24      18.8241670   18.67720  0.78%   4.5    0s
H  454   122                      18.8165746   18.67720  0.74%   4.2    0s
*  790   182              21      18.8051198   18.70720  0.52%   4.0    0s
* 1059   225              20      18.8019674   18.71077  0.49%   3.9    0s
* 1063   209              23      18.7935150   18.71077  0.44%   3.9    0s
* 1785   246              22      18.7907851   18.73183  0.31%   3.8    0s
* 1789   230              24      18.7873140   18.73183  0.30%   3.8    0s
* 2158   183              20      18.7860146   18.74230  0.23%   3.7    0s

Cutting planes:
  MIR: 6

Explored 2642 nodes (10826 simplex iterations) in 0.30 seconds
Thread count was 8 (of 8 available processors)

Optimal solution found (tolerance 1.00e-04)
Best objective 1.878601462120e+01, best bound 1.878601462120e+01, gap 0.0%

Wrote requested result file 'H1\instance3\\Results3E_Sol6.lp'

